WARNING: for repeatability, setting FPU to use double precision
============================[ Problem Statistics ]=============================
|                                                                             |
|  Number of symmetries:          11                                          |
|  Number of invertingSyms:        0                                          |
|  Number of variables:            42                                         |
|  Number of clauses:             133                                         |
|  Parse time:                   0.00 s                                       |
|                                                                             |
============================[ Search Statistics ]==============================
| Conflicts |          ORIGINAL         |          LEARNT          | Progress |
|           |    Vars  Clauses Literals |    Limit  Clauses Lit/Cl |          |
===============================================================================
|       100 |      42      133      294 |       48       38     11 |  0.058 % |
===============================================================================
restarts              : 2
conflicts             : 164            (inf /sec)
symconflicts          : 20             (inf /sec)
decisions             : 209            (0.00 % random) (inf /sec)
propagations          : 2513           (inf /sec)
sympropagations       : 80             (inf /sec)
conflict literals     : 1996           (4.13 % deleted)
Memory used           : 5.00 MB
CPU time              : 0 s

UNSATISFIABLE
